18483 17229 99 98 97 96 95 94 90 89 88 87 86 84 83 82 81 80 78 75 74 68 67 66 65 64 63 62 61 58 57 56 55 54 53 52 51 50 49 46 45 43 39 37 36 35 34 32 31 30 29 28 26 24 23 22 20 19 17 16 14 13 11 10 8 7 5 4 2 